&CONTROL                                ! Control parameters for the calculation
    calculation = 'scf',                ! Type of calculation: self-consistent field (SCF)
    restart_mode = 'from_scratch'
    prefix = 'RuO2',                    ! Prefix for output files
    outdir = './tmp/',                  ! Directory for temporary files
    pseudo_dir = './pseudo/',           ! Directory containing pseudopotential files
    verbosity = 'high',                 ! Level of output detail
    tprnfor = .false.,                  ! We don't forces on atoms
    tstress = .false.,                  ! We don't need stress tensor
/       

&SYSTEM                                 ! System-specific parameters
    ibrav = 6,                          ! Bravais lattice index
    a = 4.4825003200,                   ! Lattice parameter a (in Bohr or Angstrom, depending on input_dft)
    c = 3.1113414000,                   ! Lattice parameter c
    nat = 6,                            ! Number of atoms in the unit cell
    ntyp = 2,                           ! Number of atomic species
    nbnd = 6,                           ! Number of electronic states (bands) to be calculated
    nspin = 2,                          ! Spin-polarized calculation
    lspinorb=.true.,
    ecutwfc=60,
    ecutrho=640,
    occupations = 'smearing',           ! Use smearing for occupation numbers
    smearing = 'mv',                    ! Methfessel-Paxton smearing
    degauss=0.005d0,
    noinv = .true.,                     ! No symmetry from k -> -k
    no_t_rev =.true.                    ! No time-reversal symmetry 
/       

&ELECTRONS                              ! Electronic minimization parameters
    conv_thr = 1.0d-10,                  ! Convergence threshold for self-consistency
    mixing_beta = 0.1,                  ! Mixing factor for self-consistency
    diagonalization='david',
/       

ATOMIC_SPECIES                          ! Atomic species: label, mass, pseudopotential file
    Ru  101.07  Ru.rel-pbe-spn-rrkjus_psl.1.0.0.UPF
    O   15.999  O.rel-pbe-n-kjpaw_psl.1.0.0.UPF

ATOMIC_POSITIONS crystal !Relative to the lattice constant
 Ru	0.0000000000	0.0000000000	0.0000000000
 Ru	0.5000000000	0.5000000000	0.5000000000
 O	0.1945578400	0.8054421600	0.5000000000  ! O at (0.194558, 0.805442, 1/2) (4f Wyckoff)
 O	0.8054421600	0.1945578400	0.5000000000  ! O symmetry equivalent
 O	0.6945578400	0.6945578400	0.0000000000  ! O symmetry equivalent
 O	0.3054421600	0.3054421600	0.0000000000  ! O symmetry equivalent

K_POINTS {automatic}
  26  26  1  0 0 0