&CONTROL                                ! Control parameters for the calculation
    calculation = 'scf',                ! Type of calculation: self-consistent field (SCF)
    prefix = 'RuO2',                    ! Prefix for output files
    outdir = './tmp/',                  ! Directory for temporary files
    pseudo_dir = './pseudo/',           ! Directory containing pseudopotential files
    verbosity = 'high',                 ! Level of output detail
    tprnfor = .false.,                  ! We don't forces on atoms
    tstress = .false.,                  ! We don't need stress tensor
/       

&SYSTEM                                 ! System-specific parameters
    ibrav = 0,                          ! Bravais lattice index (8 = base-centered orthorhombic)
    a = 4.4825003200,                   ! Lattice parameter a (in Bohr or Angstrom, depending on input_dft)
    c = 3.1113414000,                   ! Lattice parameter c
    nat = 6,                            ! Number of atoms in the unit cell
    ntyp = 2,                           ! Number of atomic species
    nbnd = 6,                           ! Number of electronic states (bands) to be calculated
    nspin = 2,                          ! Spin-polarized calculation
    starting_magnetization(1) = 1.0,    ! Ru: positive magnetization
    starting_magnetization(2) = 0.0,    ! O: non-magnetic
    ATOMIC_FORCES = .true.,             ! Print atomic forces
    starting_ns_eigenvalue = 2,         ! Two Ru atoms, set up for opposite spins
    starting_spin_angle(1) = 0.0,       ! First Ru: up
    starting_spin_angle(2) = 180.0,     ! Second Ru: down
    constrained_magnetization = 'total',! constrain the spin of the whole system
    fixed_magnetization(3),             ! fix the magnetization along the z axis
    ecutwfc = 52.0,                     ! use from Ru
    ecutrho = 368.0,                    ! use from Ru
    occupations = 'smearing',           ! Use smearing for occupation numbers
    smearing = 'mp',                    ! Methfessel-Paxton smearing
    degauss = 0.02,                     ! Smearing width (Ry)
    noinv = .true.,                     ! No symmetry from k -> -k
    no_t_rev =.true.                    ! No time-reversal symmetry 
/       

&ELECTRONS                              ! Electronic minimization parameters
    conv_thr = 1.0d-8,                  ! Convergence threshold for self-consistency
    mixing_beta = 0.7,                  ! Mixing factor for self-consistency
/       

ATOMIC_SPECIES                          ! Atomic species: label, mass, pseudopotential file
    Ru  101.07  Ru.rel-pbe-spn-rrkjus_psl.1.0.0.UPF
    O   15.999  O.rel-pbe-n-kjpaw_psl.1.0.0.UPF

ATOMIC_POSITIONS crystal !Relative to the lattice constant
 Ru	0.0000000000	0.0000000000	0.0000000000
 Ru	0.5000000000	0.5000000000	0.5000000000
 O	0.1945578400	0.8054421600	0.5000000000  ! O at (0.194558, 0.805442, 1/2) (4f Wyckoff)
 O	0.8054421600	0.1945578400	0.5000000000  ! O symmetry equivalent
 O	0.6945578400	0.6945578400	0.0000000000  ! O symmetry equivalent
 O	0.3054421600	0.3054421600	0.0000000000  ! O symmetry equivalent

K_POINTS crystal
304
    0.0000000000     0.0000000000     0.0000000000 1
    0.0000000000     0.0185185185     0.0000000000 1
    0.0000000000     0.0370370370     0.0000000000 1
    0.0000000000     0.0555555556     0.0000000000 1
    0.0000000000     0.0740740741     0.0000000000 1
    0.0000000000     0.0925925926     0.0000000000 1
    0.0000000000     0.1111111111     0.0000000000 1
    0.0000000000     0.1296296296     0.0000000000 1
    0.0000000000     0.1481481481     0.0000000000 1
    0.0000000000     0.1666666667     0.0000000000 1
    0.0000000000     0.1851851852     0.0000000000 1
    0.0000000000     0.2037037037     0.0000000000 1
    0.0000000000     0.2222222222     0.0000000000 1
    0.0000000000     0.2407407407     0.0000000000 1
    0.0000000000     0.2592592593     0.0000000000 1
    0.0000000000     0.2777777778     0.0000000000 1
    0.0000000000     0.2962962963     0.0000000000 1
    0.0000000000     0.3148148148     0.0000000000 1
    0.0000000000     0.3333333333     0.0000000000 1
    0.0000000000     0.3518518519     0.0000000000 1
    0.0000000000     0.3703703704     0.0000000000 1
    0.0000000000     0.3888888889     0.0000000000 1
    0.0000000000     0.4074074074     0.0000000000 1
    0.0000000000     0.4259259259     0.0000000000 1
    0.0000000000     0.4444444444     0.0000000000 1
    0.0000000000     0.4629629630     0.0000000000 1
    0.0000000000     0.4814814815     0.0000000000 1
    0.0000000000     0.5000000000     0.0000000000 1
    0.0185185185     0.5000000000     0.0000000000 1
    0.0370370370     0.5000000000     0.0000000000 1
    0.0555555556     0.5000000000     0.0000000000 1
    0.0740740741     0.5000000000     0.0000000000 1
    0.0925925926     0.5000000000     0.0000000000 1
    0.1111111111     0.5000000000     0.0000000000 1
    0.1296296296     0.5000000000     0.0000000000 1
    0.1481481481     0.5000000000     0.0000000000 1
    0.1666666667     0.5000000000     0.0000000000 1
    0.1851851852     0.5000000000     0.0000000000 1
    0.2037037037     0.5000000000     0.0000000000 1
    0.2222222222     0.5000000000     0.0000000000 1
    0.2407407407     0.5000000000     0.0000000000 1
    0.2592592593     0.5000000000     0.0000000000 1
    0.2777777778     0.5000000000     0.0000000000 1
    0.2962962963     0.5000000000     0.0000000000 1
    0.3148148148     0.5000000000     0.0000000000 1
    0.3333333333     0.5000000000     0.0000000000 1
    0.3518518519     0.5000000000     0.0000000000 1
    0.3703703704     0.5000000000     0.0000000000 1
    0.3888888889     0.5000000000     0.0000000000 1
    0.4074074074     0.5000000000     0.0000000000 1
    0.4259259259     0.5000000000     0.0000000000 1
    0.4444444444     0.5000000000     0.0000000000 1
    0.4629629630     0.5000000000     0.0000000000 1
    0.4814814815     0.5000000000     0.0000000000 1
    0.5000000000     0.5000000000     0.0000000000 1
    0.4868421053     0.4868421053     0.0000000000 1
    0.4736842105     0.4736842105     0.0000000000 1
    0.4605263158     0.4605263158     0.0000000000 1
    0.4473684211     0.4473684211     0.0000000000 1
    0.4342105263     0.4342105263     0.0000000000 1
    0.4210526316     0.4210526316     0.0000000000 1
    0.4078947368     0.4078947368     0.0000000000 1
    0.3947368421     0.3947368421     0.0000000000 1
    0.3815789474     0.3815789474     0.0000000000 1
    0.3684210526     0.3684210526     0.0000000000 1
    0.3552631579     0.3552631579     0.0000000000 1
    0.3421052632     0.3421052632     0.0000000000 1
    0.3289473684     0.3289473684     0.0000000000 1
    0.3157894737     0.3157894737     0.0000000000 1
    0.3026315789     0.3026315789     0.0000000000 1
    0.2894736842     0.2894736842     0.0000000000 1
    0.2763157895     0.2763157895     0.0000000000 1
    0.2631578947     0.2631578947     0.0000000000 1
    0.2500000000     0.2500000000     0.0000000000 1
    0.2368421053     0.2368421053     0.0000000000 1
    0.2236842105     0.2236842105     0.0000000000 1
    0.2105263158     0.2105263158     0.0000000000 1
    0.1973684211     0.1973684211     0.0000000000 1
    0.1842105263     0.1842105263     0.0000000000 1
    0.1710526316     0.1710526316     0.0000000000 1
    0.1578947368     0.1578947368     0.0000000000 1
    0.1447368421     0.1447368421     0.0000000000 1
    0.1315789474     0.1315789474     0.0000000000 1
    0.1184210526     0.1184210526     0.0000000000 1
    0.1052631579     0.1052631579     0.0000000000 1
    0.0921052632     0.0921052632     0.0000000000 1
    0.0789473684     0.0789473684     0.0000000000 1
    0.0657894737     0.0657894737     0.0000000000 1
    0.0526315789     0.0526315789     0.0000000000 1
    0.0394736842     0.0394736842     0.0000000000 1
    0.0263157895     0.0263157895     0.0000000000 1
    0.0131578947     0.0131578947     0.0000000000 1
    0.0000000000     0.0000000000     0.0000000000 1
    0.0000000000     0.0000000000     0.0128205128 1
    0.0000000000     0.0000000000     0.0256410256 1
    0.0000000000     0.0000000000     0.0384615385 1
    0.0000000000     0.0000000000     0.0512820513 1
    0.0000000000     0.0000000000     0.0641025641 1
    0.0000000000     0.0000000000     0.0769230769 1
    0.0000000000     0.0000000000     0.0897435897 1
    0.0000000000     0.0000000000     0.1025641026 1
    0.0000000000     0.0000000000     0.1153846154 1
    0.0000000000     0.0000000000     0.1282051282 1
    0.0000000000     0.0000000000     0.1410256410 1
    0.0000000000     0.0000000000     0.1538461538 1
    0.0000000000     0.0000000000     0.1666666667 1
    0.0000000000     0.0000000000     0.1794871795 1
    0.0000000000     0.0000000000     0.1923076923 1
    0.0000000000     0.0000000000     0.2051282051 1
    0.0000000000     0.0000000000     0.2179487179 1
    0.0000000000     0.0000000000     0.2307692308 1
    0.0000000000     0.0000000000     0.2435897436 1
    0.0000000000     0.0000000000     0.2564102564 1
    0.0000000000     0.0000000000     0.2692307692 1
    0.0000000000     0.0000000000     0.2820512821 1
    0.0000000000     0.0000000000     0.2948717949 1
    0.0000000000     0.0000000000     0.3076923077 1
    0.0000000000     0.0000000000     0.3205128205 1
    0.0000000000     0.0000000000     0.3333333333 1
    0.0000000000     0.0000000000     0.3461538462 1
    0.0000000000     0.0000000000     0.3589743590 1
    0.0000000000     0.0000000000     0.3717948718 1
    0.0000000000     0.0000000000     0.3846153846 1
    0.0000000000     0.0000000000     0.3974358974 1
    0.0000000000     0.0000000000     0.4102564103 1
    0.0000000000     0.0000000000     0.4230769231 1
    0.0000000000     0.0000000000     0.4358974359 1
    0.0000000000     0.0000000000     0.4487179487 1
    0.0000000000     0.0000000000     0.4615384615 1
    0.0000000000     0.0000000000     0.4743589744 1
    0.0000000000     0.0000000000     0.4871794872 1
    0.0000000000     0.0000000000     0.5000000000 1
    0.0000000000     0.0185185185     0.5000000000 1
    0.0000000000     0.0370370370     0.5000000000 1
    0.0000000000     0.0555555556     0.5000000000 1
    0.0000000000     0.0740740741     0.5000000000 1
    0.0000000000     0.0925925926     0.5000000000 1
    0.0000000000     0.1111111111     0.5000000000 1
    0.0000000000     0.1296296296     0.5000000000 1
    0.0000000000     0.1481481481     0.5000000000 1
    0.0000000000     0.1666666667     0.5000000000 1
    0.0000000000     0.1851851852     0.5000000000 1
    0.0000000000     0.2037037037     0.5000000000 1
    0.0000000000     0.2222222222     0.5000000000 1
    0.0000000000     0.2407407407     0.5000000000 1
    0.0000000000     0.2592592593     0.5000000000 1
    0.0000000000     0.2777777778     0.5000000000 1
    0.0000000000     0.2962962963     0.5000000000 1
    0.0000000000     0.3148148148     0.5000000000 1
    0.0000000000     0.3333333333     0.5000000000 1
    0.0000000000     0.3518518519     0.5000000000 1
    0.0000000000     0.3703703704     0.5000000000 1
    0.0000000000     0.3888888889     0.5000000000 1
    0.0000000000     0.4074074074     0.5000000000 1
    0.0000000000     0.4259259259     0.5000000000 1
    0.0000000000     0.4444444444     0.5000000000 1
    0.0000000000     0.4629629630     0.5000000000 1
    0.0000000000     0.4814814815     0.5000000000 1
    0.0000000000     0.5000000000     0.5000000000 1
    0.0185185185     0.5000000000     0.5000000000 1
    0.0370370370     0.5000000000     0.5000000000 1
    0.0555555556     0.5000000000     0.5000000000 1
    0.0740740741     0.5000000000     0.5000000000 1
    0.0925925926     0.5000000000     0.5000000000 1
    0.1111111111     0.5000000000     0.5000000000 1
    0.1296296296     0.5000000000     0.5000000000 1
    0.1481481481     0.5000000000     0.5000000000 1
    0.1666666667     0.5000000000     0.5000000000 1
    0.1851851852     0.5000000000     0.5000000000 1
    0.2037037037     0.5000000000     0.5000000000 1
    0.2222222222     0.5000000000     0.5000000000 1
    0.2407407407     0.5000000000     0.5000000000 1
    0.2592592593     0.5000000000     0.5000000000 1
    0.2777777778     0.5000000000     0.5000000000 1
    0.2962962963     0.5000000000     0.5000000000 1
    0.3148148148     0.5000000000     0.5000000000 1
    0.3333333333     0.5000000000     0.5000000000 1
    0.3518518519     0.5000000000     0.5000000000 1
    0.3703703704     0.5000000000     0.5000000000 1
    0.3888888889     0.5000000000     0.5000000000 1
    0.4074074074     0.5000000000     0.5000000000 1
    0.4259259259     0.5000000000     0.5000000000 1
    0.4444444444     0.5000000000     0.5000000000 1
    0.4629629630     0.5000000000     0.5000000000 1
    0.4814814815     0.5000000000     0.5000000000 1
    0.5000000000     0.5000000000     0.5000000000 1
    0.4868421053     0.4868421053     0.5000000000 1
    0.4736842105     0.4736842105     0.5000000000 1
    0.4605263158     0.4605263158     0.5000000000 1
    0.4473684211     0.4473684211     0.5000000000 1
    0.4342105263     0.4342105263     0.5000000000 1
    0.4210526316     0.4210526316     0.5000000000 1
    0.4078947368     0.4078947368     0.5000000000 1
    0.3947368421     0.3947368421     0.5000000000 1
    0.3815789474     0.3815789474     0.5000000000 1
    0.3684210526     0.3684210526     0.5000000000 1
    0.3552631579     0.3552631579     0.5000000000 1
    0.3421052632     0.3421052632     0.5000000000 1
    0.3289473684     0.3289473684     0.5000000000 1
    0.3157894737     0.3157894737     0.5000000000 1
    0.3026315789     0.3026315789     0.5000000000 1
    0.2894736842     0.2894736842     0.5000000000 1
    0.2763157895     0.2763157895     0.5000000000 1
    0.2631578947     0.2631578947     0.5000000000 1
    0.2500000000     0.2500000000     0.5000000000 1
    0.2368421053     0.2368421053     0.5000000000 1
    0.2236842105     0.2236842105     0.5000000000 1
    0.2105263158     0.2105263158     0.5000000000 1
    0.1973684211     0.1973684211     0.5000000000 1
    0.1842105263     0.1842105263     0.5000000000 1
    0.1710526316     0.1710526316     0.5000000000 1
    0.1578947368     0.1578947368     0.5000000000 1
    0.1447368421     0.1447368421     0.5000000000 1
    0.1315789474     0.1315789474     0.5000000000 1
    0.1184210526     0.1184210526     0.5000000000 1
    0.1052631579     0.1052631579     0.5000000000 1
    0.0921052632     0.0921052632     0.5000000000 1
    0.0789473684     0.0789473684     0.5000000000 1
    0.0657894737     0.0657894737     0.5000000000 1
    0.0526315789     0.0526315789     0.5000000000 1
    0.0394736842     0.0394736842     0.5000000000 1
    0.0263157895     0.0263157895     0.5000000000 1
    0.0131578947     0.0131578947     0.5000000000 1
    0.0000000000     0.0000000000     0.5000000000 1
    0.0000000000     0.5000000000     0.0000000000 1
    0.0000000000     0.5000000000     0.0128205128 1
    0.0000000000     0.5000000000     0.0256410256 1
    0.0000000000     0.5000000000     0.0384615385 1
    0.0000000000     0.5000000000     0.0512820513 1
    0.0000000000     0.5000000000     0.0641025641 1
    0.0000000000     0.5000000000     0.0769230769 1
    0.0000000000     0.5000000000     0.0897435897 1
    0.0000000000     0.5000000000     0.1025641026 1
    0.0000000000     0.5000000000     0.1153846154 1
    0.0000000000     0.5000000000     0.1282051282 1
    0.0000000000     0.5000000000     0.1410256410 1
    0.0000000000     0.5000000000     0.1538461538 1
    0.0000000000     0.5000000000     0.1666666667 1
    0.0000000000     0.5000000000     0.1794871795 1
    0.0000000000     0.5000000000     0.1923076923 1
    0.0000000000     0.5000000000     0.2051282051 1
    0.0000000000     0.5000000000     0.2179487179 1
    0.0000000000     0.5000000000     0.2307692308 1
    0.0000000000     0.5000000000     0.2435897436 1
    0.0000000000     0.5000000000     0.2564102564 1
    0.0000000000     0.5000000000     0.2692307692 1
    0.0000000000     0.5000000000     0.2820512821 1
    0.0000000000     0.5000000000     0.2948717949 1
    0.0000000000     0.5000000000     0.3076923077 1
    0.0000000000     0.5000000000     0.3205128205 1
    0.0000000000     0.5000000000     0.3333333333 1
    0.0000000000     0.5000000000     0.3461538462 1
    0.0000000000     0.5000000000     0.3589743590 1
    0.0000000000     0.5000000000     0.3717948718 1
    0.0000000000     0.5000000000     0.3846153846 1
    0.0000000000     0.5000000000     0.3974358974 1
    0.0000000000     0.5000000000     0.4102564103 1
    0.0000000000     0.5000000000     0.4230769231 1
    0.0000000000     0.5000000000     0.4358974359 1
    0.0000000000     0.5000000000     0.4487179487 1
    0.0000000000     0.5000000000     0.4615384615 1
    0.0000000000     0.5000000000     0.4743589744 1
    0.0000000000     0.5000000000     0.4871794872 1
    0.0000000000     0.5000000000     0.5000000000 1
    0.5000000000     0.5000000000     0.0000000000 1
    0.5000000000     0.5000000000     0.0128205128 1
    0.5000000000     0.5000000000     0.0256410256 1
    0.5000000000     0.5000000000     0.0384615385 1
    0.5000000000     0.5000000000     0.0512820513 1
    0.5000000000     0.5000000000     0.0641025641 1
    0.5000000000     0.5000000000     0.0769230769 1
    0.5000000000     0.5000000000     0.0897435897 1
    0.5000000000     0.5000000000     0.1025641026 1
    0.5000000000     0.5000000000     0.1153846154 1
    0.5000000000     0.5000000000     0.1282051282 1
    0.5000000000     0.5000000000     0.1410256410 1
    0.5000000000     0.5000000000     0.1538461538 1
    0.5000000000     0.5000000000     0.1666666667 1
    0.5000000000     0.5000000000     0.1794871795 1
    0.5000000000     0.5000000000     0.1923076923 1
    0.5000000000     0.5000000000     0.2051282051 1
    0.5000000000     0.5000000000     0.2179487179 1
    0.5000000000     0.5000000000     0.2307692308 1
    0.5000000000     0.5000000000     0.2435897436 1
    0.5000000000     0.5000000000     0.2564102564 1
    0.5000000000     0.5000000000     0.2692307692 1
    0.5000000000     0.5000000000     0.2820512821 1
    0.5000000000     0.5000000000     0.2948717949 1
    0.5000000000     0.5000000000     0.3076923077 1
    0.5000000000     0.5000000000     0.3205128205 1
    0.5000000000     0.5000000000     0.3333333333 1
    0.5000000000     0.5000000000     0.3461538462 1
    0.5000000000     0.5000000000     0.3589743590 1
    0.5000000000     0.5000000000     0.3717948718 1
    0.5000000000     0.5000000000     0.3846153846 1
    0.5000000000     0.5000000000     0.3974358974 1
    0.5000000000     0.5000000000     0.4102564103 1
    0.5000000000     0.5000000000     0.4230769231 1
    0.5000000000     0.5000000000     0.4358974359 1
    0.5000000000     0.5000000000     0.4487179487 1
    0.5000000000     0.5000000000     0.4615384615 1
    0.5000000000     0.5000000000     0.4743589744 1
    0.5000000000     0.5000000000     0.4871794872 1
    0.5000000000     0.5000000000     0.5000000000 1